p cnf 120 331
-100 -78 0
100 78 0
-86 111 0
86 -111 0
-99 4 0
-99 17 0
4 100 -5 12 0
4 -5 12 -15 0
-4 5 0
-4 -12 0
-4 -100 15 0
5 95 -8 0
5 6 7 -8 0
-5 8 0
-5 -95 -7 0
-5 -95 -6 0
6 90 -96 0
-6 -90 0
-6 96 0
7 87 -93 0
-7 -87 0
-7 93 0
8 9 11 0
8 96 -10 11 0
-8 -11 0
-8 -9 10 0
-8 -96 -9 0
9 91 -97 0
-9 -91 0
-9 97 0
10 -89 -90 0
-10 89 0
-10 90 0
11 -96 -7 0
11 89 90 -96 0
-11 96 0
-11 -89 7 0
-11 -90 7 0
12 -85 13 0
12 88 13 0
-12 -13 0
-12 85 -88 0
13 9 -14 0
-13 -9 0
-13 14 0
14 -89 6 0
14 95 6 0
-14 -6 0
-14 89 -95 0
15 -88 -89 -90 -16 0
-15 16 0
-15 88 0
-15 90 0
-15 89 0
16 -91 -92 0
-16 91 0
-16 92 0
17 -87 -19 0
17 100 18 -19 0
-17 19 0
-17 87 -100 0
-17 87 -18 0
18 -93 -97 0
18 85 -93 94 0
-18 93 0
-18 -85 97 0
-18 -94 97 0
19 98 20 0
19 7 20 22 0
-19 -20 0
-19 -98 -22 0
-19 -98 -7 0
20 -94 21 0
20 -94 13 0
-20 94 0
-20 -13 -21 0
21 85 -93 0
21 -88 93 0
21 -87 -88 0
-21 88 93 0
-21 -85 87 -93 0
-21 -85 88 0
22 92 -97 0
22 91 92 0
22 -86 92 0
-22 -92 0
-22 86 -91 97 0
-97 35 0
-100 -25 0
-100 29 0
-100 27 0
25 -9 26 0
25 89 -95 26 0
-25 -26 0
-25 -89 9 0
-25 95 9 0
26 88 90 0
-26 -88 0
-26 -90 0
27 6 28 0
27 88 89 28 0
-27 -28 0
-27 -89 -6 0
-27 -88 -6 0
28 -92 -9 0
28 -89 -9 0
-28 9 0
-28 89 92 0
29 -14 30 33 0
29 30 -32 33 0
-29 -33 0
-29 -30 0
-29 14 32 0
30 26 -31 0
30 -91 -31 0
30 -89 -31 0
-30 31 0
-30 89 91 -26 0
31 92 -98 0
-31 -92 0
-31 98 0
32 91 92 0
-32 -91 0
-32 -92 0
33 88 -94 34 0
-33 -88 0
-33 94 0
-33 -34 0
34 89 90 91 92 0
-34 -92 0
-34 -91 0
-34 -89 0
-34 -90 0
35 -90 38 0
35 38 39 0
35 90 36 39 0
-35 90 -39 0
-35 -90 -38 0
-35 -36 -38 0
36 95 -37 0
-36 -95 0
-36 37 0
37 -88 94 0
-37 88 0
-37 -94 0
38 -91 92 96 0
-38 91 0
-38 -96 0
-38 -92 0
39 -92 98 0
-39 92 0
-39 -98 0
88 42 0
89 42 0
42 92 98 0
42 -98 43 0
42 97 98 0
-42 -98 -43 0
-42 -92 -97 98 0
43 -90 96 0
-43 90 0
-43 -96 0
99 -39 0
87 93 -39 0
-36 -46 0
89 -98 -36 0
46 -90 92 -96 0
-46 90 0
-46 -92 0
-46 96 0
99 100 48 0
-100 -7 48 0
48 88 89 90 -32 0
-48 32 0
-48 -90 0
-48 -88 0
-48 -89 0
50 52 0
92 93 50 0
50 91 37 -51 0
50 -97 37 -51 0
-50 51 0
-50 -37 0
-50 -91 97 0
51 -95 43 0
51 89 43 0
-51 -43 0
-51 -89 95 0
52 -87 -99 0
52 98 -99 0
-52 99 0
-52 87 -98 0
-87 59 0
-87 -54 0
54 -91 -56 0
54 96 55 -56 0
-54 56 0
-54 91 -96 0
-54 91 -55 0
55 90 -95 0
55 89 90 37 0
-55 -90 0
-55 -89 95 0
-55 95 -37 0
56 97 -58 0
56 97 57 0
56 91 97 0
-56 -97 0
-56 -91 -57 58 0
57 -88 -89 -90 0
-57 88 0
-57 89 0
-57 90 0
58 -85 92 0
58 86 92 98 0
-58 -92 0
-58 85 -98 0
-58 85 -86 0
59 60 61 62 -64 0
-59 64 0
-59 -62 0
-59 -60 0
-59 -61 0
60 93 15 0
60 -100 14 15 0
-60 -15 0
-60 -93 100 0
-60 -93 -14 0
61 99 14 0
61 99 100 0
61 93 99 0
-61 -99 0
-61 -93 -100 -14 0
62 -94 -63 0
62 88 -94 -100 0
-62 94 0
-62 -88 63 0
-62 100 63 0
63 -91 92 97 0
-63 91 0
-63 -97 0
-63 -92 0
64 98 65 0
64 -92 65 0
64 100 65 0
-64 -65 0
-64 92 -98 -100 0
65 91 -39 0
65 91 -97 -100 0
-65 -91 0
-65 97 39 0
-65 100 39 0
-89 -67 0
-89 95 69 0
67 -37 -68 0
67 -95 16 -37 0
-67 37 0
-67 -16 68 0
-67 95 68 0
68 90 96 -98 0
-68 98 0
-68 -96 0
-68 -90 0
69 46 70 -73 0
69 98 46 70 0
-69 -70 0
-69 -46 0
-69 -98 73 0
70 96 -72 0
70 96 -97 -71 0
-70 -96 0
-70 97 72 0
-70 71 72 0
71 -91 92 0
-71 91 0
-71 -92 0
72 90 -98 0
-72 -90 0
-72 98 0
73 -88 -91 0
73 -88 90 0
73 -88 -97 0
-73 88 0
-73 -90 91 97 0
-99 -75 0
99 75 0
75 76 -77 0
75 112 76 0
-75 -76 0
-75 -112 77 0
76 87 88 -34 0
-76 34 0
-76 -88 0
-76 -87 0
77 -87 -88 -10 -16 0
-77 16 0
-77 87 0
-77 10 0
-77 88 0
78 79 -82 0
78 113 79 0
-78 -79 0
-78 -113 82 0
79 97 98 80 -81 0
-79 81 0
-79 -80 0
-79 -97 0
-79 -98 0
80 93 -94 0
-80 -93 0
-80 94 0
81 95 96 0
-81 -95 0
-81 -96 0
82 98 80 -84 0
82 -98 80 -83 0
-82 -80 0
-82 -98 83 0
-82 98 84 0
83 -94 -95 -96 -97 0
-83 97 0
-83 94 0
-83 96 0
-83 95 0
84 95 96 97 0
-84 -95 0
-84 -97 0
-84 -96 0
-111 116 0
-112 118 0
-113 120 0
