p cnf 394 1433
-368 -321 0
368 321 0
-334 392 0
334 -392 0
337 4 -76 0
4 -54 -76 0
4 -335 23 0
4 -335 365 5 0
-4 335 0
-4 -365 -23 0
-4 -5 -23 0
5 349 -364 0
5 -349 -15 0
5 349 -6 0
-5 -349 15 0
-5 349 364 6 0
6 348 -363 0
6 347 348 7 0
-6 -348 0
-6 -347 363 0
-6 363 -7 0
7 -346 362 0
7 361 362 8 0
-7 -362 0
-7 346 -8 0
-7 346 -361 0
8 345 -360 0
8 344 345 9 0
-8 -345 0
-8 -344 360 0
-8 360 -9 0
9 -343 359 0
9 358 359 10 0
-9 -359 0
-9 343 -10 0
-9 343 -358 0
10 342 -357 0
10 341 342 11 0
-10 -342 0
-10 -341 357 0
-10 357 -11 0
11 -340 356 0
11 355 356 12 0
-11 -356 0
-11 340 -12 0
-11 340 -355 0
12 339 -354 0
12 338 339 13 0
-12 -339 0
-12 -338 354 0
-12 354 -13 0
13 -337 353 0
13 353 -14 0
-13 -353 0
-13 337 14 0
14 -336 352 0
-14 336 0
-14 -352 0
15 -350 -16 -20 0
15 -16 -20 -22 0
-15 20 0
-15 16 0
-15 350 22 0
16 -336 -343 -17 -19 0
-16 19 0
-16 336 0
-16 17 0
-16 343 0
17 -339 -340 -18 0
-17 339 0
-17 340 0
-17 18 0
18 -337 -338 0
-18 337 0
-18 338 0
19 -341 -342 0
-19 341 0
-19 342 0
20 -344 -345 -348 -21 0
-20 21 0
-20 344 0
-20 348 0
-20 345 0
21 -346 -347 0
-21 346 0
-21 347 0
22 333 -334 0
22 333 -366 0
-22 -333 0
-22 334 366 0
23 368 -35 0
23 24 -30 -35 0
-23 35 0
-23 -368 30 0
-23 -368 -24 0
24 25 -29 0
24 25 -28 0
24 25 -27 0
-24 -25 0
-24 27 28 29 0
25 -336 -337 -26 0
-25 336 0
-25 337 0
-25 26 0
26 -338 -349 -350 -367 0
-26 367 0
-26 338 0
-26 350 0
-26 349 0
27 338 -354 0
-27 -338 0
-27 354 0
28 337 -353 0
-28 -337 0
-28 353 0
29 350 -366 0
-29 -350 0
-29 366 0
30 357 31 -32 0
30 -341 31 -32 0
-30 32 0
-30 -31 0
-30 341 -357 0
31 346 -362 0
-31 -346 0
-31 362 0
32 -345 33 34 0
32 361 33 34 0
-32 -34 0
-32 -33 0
-32 345 -361 0
33 344 -360 0
-33 -344 0
-33 360 0
34 339 -355 0
-34 -339 0
-34 355 0
35 352 -38 -45 0
35 -36 -38 -45 0
-35 45 0
-35 38 0
-35 -352 36 0
36 -365 368 0
36 -336 37 0
36 -336 -365 0
36 368 37 0
-36 365 -37 0
-36 336 -368 0
37 -349 350 0
-37 349 0
-37 -350 0
38 39 41 42 44 0
-38 -44 0
-38 -42 0
-38 -39 0
-38 -41 0
39 351 40 0
39 341 351 0
39 344 351 0
-39 -351 0
-39 -341 -344 -40 0
40 -345 -346 0
-40 345 0
-40 346 0
41 367 368 0
-41 -367 0
-41 -368 0
42 349 -43 0
42 349 -365 -368 0
-42 -349 0
-42 365 43 0
-42 368 43 0
43 -350 366 0
-43 350 0
-43 -366 0
44 347 351 0
44 347 -363 -368 0
-44 -347 0
-44 -351 363 0
-44 -351 368 0
45 -47 -49 0
45 -340 46 -49 0
-45 49 0
-45 -46 47 0
-45 340 47 0
46 342 351 0
46 342 -358 0
-46 -342 0
-46 -351 358 0
47 -351 368 0
47 -351 356 48 0
-47 351 0
-47 -356 -368 0
-47 -368 -48 0
48 342 -358 0
-48 -342 0
-48 358 0
49 -351 50 0
49 -339 -25 50 0
-49 -50 0
-49 351 25 0
-49 339 351 0
50 343 52 0
50 348 51 52 0
-50 -52 0
-50 -343 -51 0
-50 -343 -348 0
51 -351 364 0
-51 351 0
-51 -364 0
52 -351 368 0
52 -351 359 53 0
-52 351 0
-52 -359 -368 0
-52 -368 -53 0
53 348 -364 0
-53 -348 0
-53 364 0
54 -353 69 74 0
54 -55 69 74 0
-54 -74 0
-54 -69 0
-54 353 55 0
55 -354 67 0
55 56 57 67 0
-55 -67 0
-55 354 -56 0
-55 354 -57 0
56 338 -366 0
-56 -338 0
-56 366 0
57 -339 350 -355 0
57 350 355 58 0
-57 -350 0
-57 355 -58 0
-57 339 -355 0
58 340 -356 0
58 356 -59 0
-58 -340 -356 0
-58 356 59 0
59 341 -357 0
59 357 -60 0
-59 -341 -357 0
-59 357 60 0
60 342 -358 0
60 358 61 66 0
-60 -342 -358 0
-60 358 -66 0
-60 358 -61 0
61 -344 359 -360 0
61 359 360 62 0
-61 -359 0
-61 360 -62 0
-61 344 -360 0
62 345 -361 0
62 361 63 64 0
-62 -345 -361 0
-62 361 -64 0
-62 361 -63 0
63 -346 -362 0
-63 346 0
-63 362 0
64 362 363 -65 0
64 -347 362 -363 0
-64 -362 0
-64 363 65 0
-64 347 -363 0
65 -348 -364 0
65 -349 364 -365 0
-65 364 365 0
-65 348 -364 0
-65 349 364 0
66 -343 -359 0
-66 343 0
-66 359 0
67 336 -366 0
67 339 -366 -68 0
-67 366 0
-67 -336 68 0
-67 -336 -339 0
68 -338 355 0
-68 338 0
-68 -355 0
69 353 70 -73 0
69 -353 -14 70 0
-69 -70 0
-69 -353 14 0
-69 353 73 0
70 -340 -71 -20 -72 0
-70 72 0
-70 340 0
-70 20 0
-70 71 0
71 -343 -19 0
-71 343 0
-71 19 0
72 -349 -350 0
-72 349 0
-72 350 0
73 -338 -354 0
-73 338 0
-73 354 0
74 -14 -75 0
74 339 -353 -14 0
-74 14 0
-74 -339 75 0
-74 353 75 0
75 338 354 -366 0
-75 366 0
-75 -354 0
-75 -338 0
76 -350 77 -123 0
76 77 -99 -123 0
-76 123 0
-76 -77 0
-76 350 99 0
77 -347 -78 0
77 -347 363 89 0
-77 347 0
-77 -363 78 0
-77 78 -89 0
78 362 -88 0
78 362 -363 79 0
-78 -362 0
-78 363 88 0
-78 -79 88 0
79 -349 -350 0
79 346 80 0
79 346 -350 0
-79 350 -80 0
-79 -346 349 0
-79 -346 350 0
80 -345 361 0
80 360 361 81 0
-80 -361 0
-80 345 -81 0
-80 345 -360 0
81 344 -359 0
81 343 344 82 0
-81 -344 0
-81 -343 359 0
-81 359 -82 0
82 -342 358 0
82 357 358 83 0
-82 -358 0
-82 342 -83 0
-82 342 -357 0
83 341 -356 0
83 340 341 84 0
-83 -341 0
-83 -340 356 0
-83 356 -84 0
84 355 85 0
-84 -355 0
-84 -85 0
85 339 -354 0
85 339 -86 0
-85 -339 0
-85 354 86 0
86 338 87 0
-86 -338 0
-86 -87 0
87 353 -14 0
-87 -353 0
-87 14 0
88 -346 348 364 -366 0
-88 366 0
-88 -364 0
-88 346 0
-88 -348 0
89 366 95 97 0
89 -90 95 97 0
-89 -97 0
-89 -95 0
-89 -366 90 0
90 -336 -346 -91 -93 0
-90 93 0
-90 336 0
-90 91 0
-90 346 0
91 -342 -345 -92 0
-91 342 0
-91 345 0
-91 92 0
92 -343 -344 0
-92 343 0
-92 344 0
93 -340 -341 -94 0
-93 340 0
-93 341 0
-93 94 0
94 -339 -18 0
-94 339 0
-94 18 0
95 364 -96 0
95 348 364 -366 0
-95 -364 0
-95 -348 96 0
-95 366 96 0
96 -349 350 -365 0
-96 349 0
-96 -350 0
-96 365 0
97 -348 -98 0
97 -348 350 -364 0
-97 348 0
-97 -350 98 0
-97 364 98 0
98 349 365 -366 0
-98 366 0
-98 -365 0
-98 -349 0
99 342 100 -110 0
99 100 -108 -110 0
-99 110 0
-99 -100 0
-99 -342 108 0
100 -340 -101 0
100 -340 102 -107 0
-100 340 0
-100 101 107 0
-100 101 -102 0
101 354 355 -356 86 0
-101 -354 0
-101 -86 0
-101 356 0
-101 -355 0
102 342 -358 0
102 358 66 103 0
-102 -342 -358 0
-102 358 -103 0
-102 358 -66 0
103 -344 359 -360 0
103 359 360 104 0
-103 -359 0
-103 360 -104 0
-103 344 -360 0
104 345 -361 0
104 361 -105 0
-104 -345 -361 0
-104 361 105 0
105 346 106 0
105 362 106 0
-105 -106 0
-105 -346 -362 0
106 362 363 -65 0
-106 65 0
-106 -363 0
-106 -362 0
107 356 357 0
-107 -356 0
-107 -357 0
108 -357 -358 0
108 358 103 0
108 -358 109 0
-108 358 -103 0
-108 357 -358 -109 0
109 355 356 85 0
-109 -355 0
-109 -85 0
-109 -356 0
110 109 111 -115 0
110 111 -114 -115 0
-110 115 0
-110 -111 0
-110 -109 114 0
111 -343 104 -113 0
111 104 -112 -113 0
-111 113 0
-111 -104 0
-111 343 112 0
112 357 358 -109 0
112 -341 357 358 0
-112 -358 0
-112 -357 0
-112 341 109 0
113 359 360 0
-113 -359 0
-113 -360 0
114 357 66 0
114 341 -357 0
114 357 -358 0
-114 -341 -357 0
-114 357 358 -66 0
115 106 -117 0
115 346 116 -117 0
-115 117 0
-115 -106 -116 0
-115 -346 -106 0
116 -345 361 0
-116 345 0
-116 -361 0
117 118 120 122 0
117 118 121 122 0
-117 -118 0
-117 -122 0
-117 -120 -121 0
118 -338 -354 -87 0
118 354 -119 -87 0
-118 87 0
-118 338 -354 0
-118 354 119 0
119 -339 -355 0
-119 339 0
-119 355 0
120 -343 358 -359 0
-120 343 0
-120 -358 0
-120 359 0
121 -341 357 0
-121 341 0
-121 -357 0
122 -348 -349 364 -365 0
-122 365 0
-122 348 0
-122 349 0
-122 -364 0
123 344 -129 0
123 124 127 -129 0
-123 129 0
-123 -344 -127 0
-123 -344 -124 0
124 350 -126 0
124 350 -112 -125 0
-124 -350 0
-124 112 126 0
-124 125 126 0
125 359 -360 0
-125 -359 0
-125 360 0
126 360 361 105 0
-126 -360 0
-126 -105 0
-126 -361 0
127 21 -128 0
127 -343 21 -125 0
-127 -21 0
-127 125 128 0
-127 343 128 0
128 -345 347 360 -361 0
-128 361 0
-128 -360 0
-128 345 0
-128 -347 0
129 368 -130 278 0
129 -130 -234 278 0
-129 130 0
-129 -278 0
-129 -368 234 0
130 367 -189 -212 0
130 -131 -189 -212 0
-130 212 0
-130 189 0
-130 -367 131 0
131 -132 -149 -160 0
131 -132 -151 -160 0
-131 160 0
-131 132 0
-131 149 151 0
132 -133 -144 0
132 -134 -139 -144 0
-132 144 0
-132 133 139 0
-132 133 134 0
133 -339 -340 0
-133 339 0
-133 340 0
134 48 135 -136 0
-134 136 0
-134 -135 0
-134 -48 0
135 345 -361 0
-135 -345 0
-135 361 0
136 -137 138 0
-136 137 0
-136 -138 0
137 -349 31 0
137 365 31 0
-137 -31 0
-137 349 -365 0
138 341 -357 0
-138 -341 0
-138 357 0
139 -140 -142 0
-139 140 0
-139 142 0
140 53 141 0
-140 -53 0
-140 -141 0
141 347 -363 0
-141 -347 0
-141 363 0
142 368 33 143 0
-142 -368 0
-142 -143 0
-142 -33 0
143 343 -359 0
-143 -343 0
-143 359 0
144 -146 148 0
144 -18 -145 148 0
-144 -148 0
-144 18 146 0
-144 145 146 0
145 333 -14 0
-145 -333 0
-145 14 0
146 34 -134 -140 147 0
-146 -34 0
-146 -147 0
-146 140 0
-146 134 0
147 340 -356 0
-147 -340 0
-147 356 0
148 19 -135 0
148 19 137 0
148 19 139 0
-148 -19 0
-148 135 -137 -139 0
149 -348 -349 -40 -150 0
-149 150 0
-149 348 0
-149 40 0
-149 349 0
150 -335 -336 -347 -350 0
-150 350 0
-150 335 0
-150 347 0
-150 336 0
151 368 152 -158 0
151 368 152 157 0
-151 -368 0
-151 -152 0
-151 -157 158 0
152 153 156 0
152 153 155 0
-152 -153 0
-152 -155 -156 0
153 53 154 0
153 -347 363 154 0
-153 -154 0
-153 -363 -53 0
-153 347 -53 0
154 349 -365 0
-154 -349 0
-154 365 0
155 -347 -40 0
-155 347 0
-155 40 0
156 -348 364 0
-156 348 0
-156 -364 0
157 335 -351 0
-157 -335 0
-157 351 0
158 -333 365 -159 0
158 -352 365 -159 0
-158 159 0
-158 -365 0
-158 333 352 0
159 363 364 0
-159 -363 0
-159 -364 0
160 -161 -165 -169 -174 0
-160 174 0
-160 161 0
-160 169 0
-160 165 0
161 356 -163 0
161 138 162 -163 0
-161 163 0
-161 -356 -162 0
-161 -356 -138 0
162 339 340 0
-162 -339 0
-162 -340 0
163 361 164 0
163 31 157 164 0
-163 -164 0
-163 -361 -157 0
-163 -361 -31 0
164 -355 -147 0
164 -355 -157 0
-164 355 0
-164 147 157 0
165 -40 -166 -167 0
165 -140 -166 -167 0
-165 167 0
-165 166 0
-165 40 140 0
166 48 157 0
166 356 357 0
166 357 157 0
-166 -357 -48 0
-166 -356 -157 0
-166 -357 -157 0
167 359 168 0
167 33 157 168 0
-167 -168 0
-167 -359 -157 0
-167 -359 -33 0
168 -353 -27 0
168 -353 -157 0
-168 353 0
-168 27 157 0
169 -92 -172 0
169 366 -170 0
169 366 -92 0
169 -170 -172 0
-169 -366 172 0
-169 92 170 0
170 368 31 -140 -171 0
-170 -368 0
-170 171 0
-170 140 0
-170 -31 0
171 -349 135 0
171 365 135 0
-171 -135 0
-171 349 -365 0
172 -350 157 0
172 334 157 -173 0
-172 -157 0
-172 -334 350 0
-172 350 173 0
173 -349 365 0
-173 349 0
-173 -365 0
174 -175 -182 185 187 0
-174 182 0
-174 -187 0
-174 175 0
-174 -185 0
175 358 176 180 0
175 176 -178 180 0
-175 -180 0
-175 -176 0
-175 -358 178 0
176 -354 -34 0
176 -354 -177 0
176 -354 -157 0
-176 354 0
-176 34 157 177 0
177 337 338 0
-177 -337 0
-177 -338 0
178 143 157 179 0
-178 -143 0
-178 -179 0
-178 -157 0
179 341 342 0
-179 -341 0
-179 -342 0
180 -360 -135 0
180 -360 -181 0
180 -360 -157 0
-180 360 0
-180 135 157 181 0
181 343 344 0
-181 -343 0
-181 -344 0
182 -18 183 0
182 -142 183 0
-182 -183 0
-182 18 142 0
183 -28 145 0
183 145 184 0
183 -27 145 0
-183 -145 0
-183 27 28 -184 0
184 33 143 0
-184 -33 0
-184 -143 0
185 -362 -141 0
185 -362 -186 0
185 -362 -157 0
-185 362 0
-185 141 157 186 0
186 345 346 0
-186 -345 0
-186 -346 0
187 336 -188 0
187 -333 -157 -188 0
-187 188 0
-187 -336 157 0
-187 333 -336 0
188 -333 -352 0
188 351 -352 0
-188 352 0
-188 333 -351 0
189 190 195 -209 0
189 43 190 195 0
-189 -195 0
-189 -190 0
-189 -43 209 0
190 -340 21 191 0
190 -340 91 191 0
-190 340 0
-190 -191 0
-190 -21 -91 0
191 356 192 0
191 -355 192 0
191 339 192 0
-191 -192 0
-191 -339 355 -356 0
192 -341 193 -194 0
192 -341 21 -194 0
-192 194 0
-192 341 0
-192 -21 -193 0
193 -345 -92 0
-193 345 0
-193 92 0
194 356 -357 0
-194 -356 0
-194 357 0
195 196 197 0
195 350 351 197 0
-195 -197 0
-195 -351 -196 0
-195 -350 -196 0
196 -335 -367 0
196 366 -367 0
-196 367 0
-196 335 -366 0
197 -198 -199 -200 -205 0
-197 205 0
-197 198 0
-197 200 0
-197 199 0
198 -355 156 0
198 339 156 0
-198 -156 0
-198 -339 355 0
199 14 116 121 173 0
-199 -173 0
-199 -121 0
-199 -14 0
-199 -116 0
200 201 202 203 204 0
-200 -204 0
-200 -203 0
-200 -201 0
-200 -202 0
201 -340 356 0
-201 340 0
-201 -356 0
202 -342 358 0
-202 342 0
-202 -358 0
203 -344 360 0
-203 344 0
-203 -360 0
204 -343 359 0
-204 343 0
-204 -359 0
205 -362 -206 208 0
205 346 -206 208 0
-205 206 0
-205 -208 0
-205 -346 362 0
206 -353 207 0
206 337 207 0
-206 -207 0
-206 -337 353 0
207 -347 363 0
-207 347 0
-207 -363 0
208 -338 354 0
-208 338 0
-208 -354 0
209 -335 -367 210 0
209 -351 -367 210 0
-209 367 0
-209 -210 0
-209 335 351 0
210 348 -365 0
210 -365 94 0
210 -365 211 0
-210 365 0
-210 -348 -94 -211 0
211 -336 -340 0
-211 336 0
-211 340 0
212 -213 -223 0
212 -348 -72 -223 0
-212 223 0
-212 348 213 0
-212 72 213 0
213 343 216 -219 0
213 -214 216 -219 0
-213 219 0
-213 -216 0
-213 -343 214 0
214 344 215 0
214 342 125 0
214 215 125 0
214 342 344 0
-214 -342 -215 0
-214 -344 -125 0
215 358 -359 0
-215 -358 0
-215 359 0
216 -341 -218 0
216 -341 -342 -217 0
-216 341 0
-216 342 218 0
-216 217 218 0
217 357 -358 0
-217 -357 0
-217 358 0
218 -340 356 -357 0
-218 340 0
-218 -356 0
-218 357 0
219 -220 221 0
219 345 221 0
-219 -221 0
-219 -345 220 0
220 361 63 0
220 344 -361 0
220 -360 -361 0
-220 361 -63 0
-220 -344 360 -361 0
221 -339 -355 -208 0
221 -339 355 -222 0
-221 339 0
-221 -355 208 0
-221 355 222 0
222 -340 -356 0
-222 340 0
-222 356 0
223 224 229 -233 0
223 224 229 -231 0
-223 -224 0
-223 -229 0
-223 231 233 0
224 367 368 225 0
224 -368 -157 225 0
-224 -225 0
-224 -368 157 0
-224 -367 368 0
225 -162 -186 -226 -228 0
-225 228 0
-225 162 0
-225 226 0
-225 186 0
226 347 -177 -227 0
-226 227 0
-226 177 0
-226 -347 0
227 349 350 0
-227 -349 0
-227 -350 0
228 336 348 -179 -181 0
-228 -336 0
-228 181 0
-228 179 0
-228 -348 0
229 -342 344 230 0
229 -342 155 230 0
-229 342 0
-229 -230 0
-229 -344 -155 0
230 341 -155 0
230 217 120 0
230 217 -155 0
230 341 120 0
-230 -341 -217 0
-230 -120 155 0
231 355 -232 0
231 339 -232 0
231 208 -232 0
-231 232 0
-231 -339 -355 -208 0
232 350 366 0
232 -366 156 0
232 365 366 0
-232 -366 -156 0
-232 -350 -365 366 0
233 -19 -92 -155 0
-233 19 0
-233 92 0
-233 155 0
234 235 -242 -250 -274 0
-234 -235 0
-234 274 0
-234 250 0
-234 242 0
235 -347 236 0
235 -337 238 0
235 -337 236 0
235 -347 238 0
-235 337 347 0
-235 -236 -238 0
236 33 -237 0
-236 -33 0
-236 237 0
237 29 143 0
-237 -29 0
-237 -143 0
238 -239 -137 -240 -241 0
-238 241 0
-238 239 0
-238 240 0
-238 137 0
239 48 135 0
-239 -48 0
-239 -135 0
240 138 147 0
-240 -138 0
-240 -147 0
241 27 34 0
-241 -27 0
-241 -34 0
242 -243 245 0
242 345 349 245 0
-242 -245 0
-242 -349 243 0
-242 -345 243 0
243 34 -240 -244 0
-243 244 0
-243 240 0
-243 -34 0
244 48 -236 0
-244 -48 0
-244 236 0
245 336 -352 226 0
245 336 -352 246 0
-245 -336 0
-245 352 0
-245 -226 -246 0
246 346 348 -247 -249 0
-246 -346 0
-246 249 0
-246 247 0
-246 -348 0
247 345 -248 0
-247 -345 0
-247 248 0
248 342 343 344 0
-248 -342 0
-248 -344 0
-248 -343 0
249 341 -162 0
-249 -341 0
-249 162 0
250 -251 -258 269 -270 0
-250 270 0
-250 251 0
-250 258 0
-250 -269 0
251 -252 -253 0
251 339 344 -253 0
-251 253 0
-251 -344 252 0
-251 -339 252 0
252 48 -237 -240 0
-252 240 0
-252 237 0
-252 -48 0
253 254 -257 0
253 27 141 254 0
-253 -254 0
-253 -27 257 0
-253 -141 257 0
254 -53 255 0
254 -28 256 0
254 -28 255 0
254 -53 256 0
-254 28 53 0
-254 -255 -256 0
255 -186 -248 0
-255 186 0
-255 248 0
256 338 347 -227 -249 0
-256 -338 0
-256 249 0
-256 227 0
-256 -347 0
257 -227 -249 -255 0
-257 227 0
-257 249 0
-257 255 0
258 -259 -262 265 267 0
-258 262 0
-258 -267 0
-258 259 0
-258 -265 0
259 135 -260 0
259 339 349 -260 0
-259 260 0
-259 -349 -135 0
-259 -339 -135 0
260 31 261 0
260 338 349 261 0
-260 -261 0
-260 -349 -31 0
-260 -338 -31 0
261 -337 -53 0
261 -336 -53 0
-261 53 0
-261 336 337 0
262 147 263 -264 0
262 350 263 -264 0
-262 264 0
-262 -263 0
-262 -350 -147 0
263 -343 -33 0
263 -339 -33 0
-263 33 0
-263 339 343 0
264 340 -177 0
264 29 141 0
264 29 -177 0
264 340 141 0
-264 -340 -29 0
-264 -141 177 0
265 -341 -48 0
265 -48 266 0
265 -343 -48 0
-265 48 0
-265 341 343 -266 0
266 340 350 0
-266 -340 0
-266 -350 0
267 -135 248 0
267 -34 268 0
267 -34 248 0
267 -135 268 0
-267 34 135 0
-267 -248 -268 0
268 340 341 350 0
-268 -340 0
-268 -350 0
-268 -341 0
269 137 249 0
269 -350 137 0
269 137 247 0
-269 -137 0
-269 350 -247 -249 0
270 -184 -271 0
270 -179 -266 -271 0
-270 271 0
-270 184 266 0
-270 179 184 0
271 138 273 0
271 -272 -266 273 0
-271 -273 0
-271 -138 272 0
-271 -138 266 0
272 342 343 0
-272 -342 0
-272 -343 0
273 -341 -147 0
273 -29 272 0
273 -341 -29 0
273 -147 272 0
-273 341 -272 0
-273 29 147 0
274 275 -276 0
274 336 348 275 0
-274 -275 0
-274 -336 276 0
-274 -348 276 0
275 -346 171 0
275 -338 243 0
275 -338 171 0
275 -346 243 0
-275 338 346 0
-275 -171 -243 0
276 -136 -241 -244 -277 0
-276 277 0
-276 136 0
-276 244 0
-276 241 0
277 28 141 135 147 0
-277 -147 0
-277 -135 0
-277 -28 0
-277 -141 0
278 -366 304 0
278 -366 279 0
278 -366 293 0
-278 366 0
-278 -279 -293 -304 0
279 340 -280 289 0
279 -280 -285 289 0
-279 280 0
-279 -289 0
-279 -340 285 0
280 341 281 0
280 281 283 284 0
-280 -281 0
-280 -341 -284 0
-280 -341 -283 0
281 340 -156 0
281 340 356 -282 0
-281 -340 0
-281 -356 156 0
-281 156 282 0
282 -339 -208 0
282 -339 355 0
-282 339 0
-282 -355 208 0
283 357 94 0
283 336 357 0
283 340 357 0
-283 -357 0
-283 -336 -340 -94 0
284 342 358 -201 0
284 342 357 358 0
-284 -342 0
-284 -358 0
-284 -357 201 0
285 -356 287 0
285 -339 -286 287 0
-285 -287 0
-285 356 286 0
-285 339 356 0
286 -336 -18 0
-286 336 0
-286 18 0
287 341 357 -288 0
287 341 356 357 0
-287 -341 0
-287 -357 0
-287 -356 288 0
288 -339 355 0
-288 339 0
-288 -355 0
289 -342 358 290 0
289 -342 -121 290 0
-289 342 0
-289 -290 0
-289 -358 121 0
290 -343 291 0
290 -359 291 0
-290 -291 0
-290 343 359 0
291 358 94 0
291 358 292 0
291 336 358 0
-291 -358 0
-291 -336 -292 -94 0
292 -340 -341 0
-292 340 0
-292 341 0
293 343 294 -300 0
293 294 -297 -300 0
-293 300 0
-293 -294 0
-293 -343 297 0
294 -344 -295 0
294 -344 360 296 0
-294 344 0
-294 -360 295 0
-294 295 -296 0
295 345 361 -204 0
295 345 360 361 0
-295 -345 0
-295 -361 0
-295 -360 204 0
296 -336 -343 -17 -19 0
-296 19 0
-296 336 0
-296 17 0
-296 343 0
297 -359 299 0
297 -17 -298 299 0
-297 -299 0
-297 359 298 0
-297 359 17 0
298 -336 -19 0
-298 336 0
-298 19 0
299 344 360 -202 0
299 344 359 360 0
-299 -344 0
-299 -360 0
-299 -359 202 0
300 -198 301 302 0
300 -286 301 302 0
-300 -302 0
-300 -301 0
-300 198 286 0
301 339 -156 0
301 339 354 -68 0
-301 -339 0
-301 -354 156 0
-301 68 156 0
302 303 -87 0
302 303 -208 0
-302 -303 0
-302 87 208 0
303 -336 -337 0
-303 336 0
-303 337 0
304 345 308 0
304 305 307 308 0
-304 -308 0
-304 -345 -307 0
-304 -345 -305 0
305 361 306 0
305 336 361 0
305 344 361 0
-305 -361 0
-305 -336 -344 -306 0
306 -342 -343 -93 0
-306 342 0
-306 343 0
-306 93 0
307 346 362 -203 0
307 346 361 362 0
-307 -346 0
-307 -362 0
-307 -361 203 0
308 -346 -310 0
308 -346 362 309 0
-308 346 0
-308 -362 310 0
-308 -309 310 0
309 -336 -344 -345 -306 0
-309 306 0
-309 336 0
-309 345 0
-309 344 0
310 347 363 -116 0
310 347 362 363 0
-310 -347 0
-310 -363 0
-310 -362 116 0
-367 -312 0
367 312 0
312 -313 317 0
312 393 317 0
312 393 -313 0
-312 -393 -317 0
-312 -393 313 0
-312 313 -317 0
313 -40 -92 -314 -316 0
-313 316 0
-313 40 0
-313 314 0
-313 92 0
314 -18 -133 -19 -315 0
-314 315 0
-314 18 0
-314 19 0
-314 133 0
315 -335 -336 0
-315 335 0
-315 336 0
316 -347 -348 -349 -350 0
-316 350 0
-316 347 0
-316 349 0
-316 348 0
317 -162 -179 -318 -319 0
-317 319 0
-317 162 0
-317 318 0
-317 179 0
318 335 336 -177 0
-318 177 0
-318 -336 0
-318 -335 0
319 343 344 -186 -320 0
-319 -343 0
-319 320 0
-319 186 0
-319 -344 0
320 347 348 -227 0
-320 227 0
-320 -348 0
-320 -347 0
321 322 -328 0
321 394 322 0
-321 -322 0
-321 -394 328 0
322 -323 -324 -325 -326 0
-322 326 0
-322 323 0
-322 325 0
-322 324 0
323 355 356 0
-323 -355 0
-323 -356 0
324 357 358 0
-324 -357 0
-324 -358 0
325 -351 353 354 0
325 352 353 354 0
-325 -354 0
-325 -353 0
-325 351 -352 0
326 361 362 -113 -327 0
-326 -361 0
-326 327 0
-326 113 0
-326 -362 0
327 363 364 365 366 0
-327 -366 0
-327 -365 0
-327 -363 0
-327 -364 0
328 -329 -330 -331 -332 0
-328 332 0
-328 329 0
-328 331 0
-328 330 0
329 -355 -356 -357 -358 0
-329 358 0
-329 355 0
-329 357 0
-329 356 0
330 -351 -352 -353 -354 0
-330 354 0
-330 351 0
-330 353 0
-330 352 0
331 -363 -364 -365 -366 0
-331 366 0
-331 363 0
-331 365 0
-331 364 0
332 -359 -360 -361 -362 0
-332 362 0
-332 359 0
-332 361 0
-332 360 0
