p cnf 690 2289
671 -625 0
-671 625 0
669 -621 0
-669 621 0
667 -616 0
-667 616 0
-664 -596 0
664 596 0
-660 584 0
660 -584 0
659 -583 0
-659 583 0
657 -580 0
-657 580 0
-654 -572 0
654 572 0
-653 -560 0
653 560 0
-627 672 0
627 -672 0
654 -26 0
670 671 -17 0
636 648 654 -16 0
16 -649 -637 0
-16 637 0
-16 649 0
667 669 17 668 -18 0
-17 18 0
-17 -669 0
-17 -667 0
-17 -668 0
18 -626 653 666 -19 0
-18 19 0
-18 -666 0
-18 626 0
-18 -653 0
19 -20 -633 0
-19 633 0
-19 20 0
20 -21 -634 -645 0
-20 634 0
-20 645 0
-20 21 0
21 -22 -646 0
-21 646 0
-21 22 0
22 -652 -647 -23 0
-22 647 0
-22 652 0
-22 23 0
23 -25 -24 0
-23 24 0
-23 25 0
24 -635 -628 0
-24 628 0
-24 635 0
25 -665 -663 -664 0
-25 663 0
-25 664 0
-25 665 0
26 -648 -636 -637 -649 0
-26 649 0
-26 636 0
-26 648 0
-26 637 0
670 671 -28 0
667 669 28 668 -29 0
-28 29 0
-28 -669 0
-28 -667 0
-28 -668 0
653 24 29 666 -30 0
-29 30 0
-29 -24 0
-29 -653 0
-29 -666 0
30 -626 647 -31 0
-30 626 0
-30 -647 0
-30 31 0
31 -32 -628 -633 0
-31 628 0
-31 633 0
-31 32 0
32 -33 -634 -645 0
-32 634 0
-32 645 0
-32 33 0
33 -34 -646 0
-33 646 0
-33 34 0
34 -652 -25 0
-34 652 0
-34 25 0
637 649 654 -36 0
36 -648 -636 0
-36 636 0
-36 648 0
671 -38 0
671 -42 0
669 670 38 668 -39 0
-38 39 0
-38 -670 0
-38 -668 0
-38 -669 0
653 667 666 39 -40 0
-39 40 0
-39 -667 0
-39 -653 0
-39 -666 0
40 630 634 646 -41 0
-40 41 0
-40 -646 0
-40 -630 0
-40 -634 0
41 -22 -633 -645 0
-41 633 0
-41 645 0
-41 22 0
669 670 42 668 -43 0
-42 43 0
-42 -670 0
-42 -668 0
-42 -669 0
667 24 43 666 -44 0
-43 44 0
-43 -24 0
-43 -666 0
-43 -667 0
646 647 44 653 -45 0
-44 45 0
-44 -653 0
-44 -646 0
-44 -647 0
633 634 45 645 -46 0
-45 46 0
-45 -645 0
-45 -633 0
-45 -634 0
46 -626 -34 0
-46 626 0
-46 34 0
654 -48 0
48 636 637 648 649 0
-48 -649 0
-48 -648 0
-48 -636 0
-48 -637 0
669 671 670 -50 0
667 668 50 666 -51 0
-50 51 0
-50 -668 0
-50 -666 0
-50 -667 0
647 653 51 24 -52 0
-51 52 0
-51 -24 0
-51 -647 0
-51 -653 0
52 -626 633 645 -53 0
-52 53 0
-52 -645 0
-52 626 0
-52 -633 0
53 -33 -628 -634 0
-53 628 0
-53 634 0
-53 33 0
670 671 -59 0
671 -55 670 0
667 669 668 55 -56 0
-55 56 0
-55 -669 0
-55 -667 0
-55 -668 0
653 24 666 56 -57 0
-56 57 0
-56 -24 0
-56 -653 0
-56 -666 0
645 646 57 647 -58 0
-57 58 0
-57 -647 0
-57 -645 0
-57 -646 0
58 632 633 634 -34 0
-58 34 0
-58 -634 0
-58 -632 0
-58 -633 0
667 669 59 668 -60 0
-59 60 0
-59 -669 0
-59 -667 0
-59 -668 0
646 653 60 666 -61 0
-60 61 0
-60 -666 0
-60 -646 0
-60 -653 0
633 634 61 645 -62 0
-61 62 0
-61 -645 0
-61 -633 0
-61 -634 0
62 -626 -22 0
-62 626 0
-62 22 0
670 671 -65 0
667 669 65 668 -66 0
-65 66 0
-65 -669 0
-65 -667 0
-65 -668 0
645 653 66 666 -67 0
-66 67 0
-66 -666 0
-66 -645 0
-66 -653 0
67 -626 633 -68 0
-67 626 0
-67 -633 0
-67 68 0
68 -21 -634 0
-68 634 0
-68 21 0
670 671 -72 0
670 671 -70 0
667 669 668 70 -71 0
-70 71 0
-70 -669 0
-70 -667 0
-70 -668 0
71 632 653 666 -19 0
-71 19 0
-71 -666 0
-71 -632 0
-71 -653 0
667 669 72 668 -73 0
-72 73 0
-72 -669 0
-72 -667 0
-72 -668 0
646 653 73 666 -74 0
-73 74 0
-73 -666 0
-73 -646 0
-73 -653 0
74 -626 634 -41 0
-74 626 0
-74 -634 0
-74 41 0
671 -76 0
671 -79 0
76 669 668 670 -77 0
-76 77 0
-76 -670 0
-76 -668 0
-76 -669 0
667 24 666 77 -78 0
-77 78 0
-77 -24 0
-77 -666 0
-77 -667 0
78 632 647 653 -31 0
-78 31 0
-78 -653 0
-78 -632 0
-78 -647 0
669 670 79 668 -80 0
-79 80 0
-79 -670 0
-79 -668 0
-79 -669 0
667 24 80 666 -81 0
-80 81 0
-80 -24 0
-80 -666 0
-80 -667 0
646 647 81 653 -82 0
-81 82 0
-81 -653 0
-81 -646 0
-81 -647 0
82 -626 634 -83 0
-82 626 0
-82 -634 0
-82 83 0
83 -34 -628 -633 -645 0
-83 34 0
-83 628 0
-83 645 0
-83 633 0
638 650 655 -85 0
85 -639 -651 0
-85 639 0
-85 651 0
669 671 -87 0
647 653 87 667 -88 0
-87 88 0
-87 -667 0
-87 -647 0
-87 -653 0
88 628 645 646 -34 0
-88 34 0
-88 -646 0
-88 -628 0
-88 -645 0
655 -90 0
90 -639 -638 -650 -651 0
-90 651 0
-90 638 0
-90 650 0
-90 639 0
669 671 670 -92 0
92 667 666 668 -93 0
-92 93 0
-92 -668 0
-92 -666 0
-92 -667 0
647 653 93 24 -94 0
-93 94 0
-93 -24 0
-93 -647 0
-93 -653 0
94 632 634 646 -83 0
-94 83 0
-94 -646 0
-94 -632 0
-94 -634 0
671 -102 0
671 -98 0
651 655 639 -97 0
97 -650 -638 0
-97 638 0
-97 650 0
98 669 668 670 -99 0
-98 99 0
-98 -670 0
-98 -668 0
-98 -669 0
653 667 666 99 -100 0
-99 100 0
-99 -667 0
-99 -653 0
-99 -666 0
634 645 100 646 -101 0
-100 101 0
-100 -646 0
-100 -634 0
-100 -645 0
101 632 633 -22 0
-101 22 0
-101 -633 0
-101 -632 0
102 669 668 670 -103 0
-102 103 0
-102 -670 0
-102 -668 0
-102 -669 0
667 24 666 103 -104 0
-103 104 0
-103 -24 0
-103 -666 0
-103 -667 0
645 647 104 653 -105 0
-104 105 0
-104 -653 0
-104 -645 0
-104 -647 0
105 632 633 -53 0
-105 53 0
-105 -633 0
-105 -632 0
671 -110 0
655 -109 0
109 638 639 650 651 0
-109 -651 0
-109 -650 0
-109 -638 0
-109 -639 0
669 670 668 110 -111 0
-110 111 0
-110 -670 0
-110 -668 0
-110 -669 0
653 667 666 111 -112 0
-111 112 0
-111 -667 0
-111 -653 0
-111 -666 0
112 631 633 645 -68 0
-112 68 0
-112 -645 0
-112 -631 0
-112 -633 0
669 671 670 -114 0
114 667 666 668 -115 0
-114 115 0
-114 -668 0
-114 -666 0
-114 -667 0
645 646 115 653 -116 0
-115 116 0
-115 -653 0
-115 -645 0
-115 -646 0
116 631 633 634 -22 0
-116 22 0
-116 -634 0
-116 -631 0
-116 -633 0
671 -120 670 0
670 671 -118 0
667 669 668 118 -119 0
-118 119 0
-118 -669 0
-118 -667 0
-118 -668 0
119 631 653 666 -19 0
-119 19 0
-119 -666 0
-119 -631 0
-119 -653 0
667 669 668 120 -121 0
-120 121 0
-120 -669 0
-120 -667 0
-120 -668 0
645 653 121 666 -122 0
-121 122 0
-121 -666 0
-121 -645 0
-121 -653 0
122 632 633 -68 0
-122 68 0
-122 -633 0
-122 -632 0
671 -130 0
671 -127 0
671 -124 0
669 670 668 124 -125 0
-124 125 0
-124 -670 0
-124 -668 0
-124 -669 0
667 24 666 125 -126 0
-125 126 0
-125 -24 0
-125 -666 0
-125 -667 0
126 631 647 653 -31 0
-126 31 0
-126 -653 0
-126 -631 0
-126 -647 0
669 670 668 127 -128 0
-127 128 0
-127 -670 0
-127 -668 0
-127 -669 0
653 667 666 128 -129 0
-128 129 0
-128 -667 0
-128 -653 0
-128 -666 0
129 631 634 646 -41 0
-129 41 0
-129 -646 0
-129 -631 0
-129 -634 0
669 670 668 130 -131 0
-130 131 0
-130 -670 0
-130 -668 0
-130 -669 0
667 24 666 131 -132 0
-131 132 0
-131 -24 0
-131 -666 0
-131 -667 0
646 647 132 653 -133 0
-132 133 0
-132 -653 0
-132 -646 0
-132 -647 0
133 631 634 -83 0
-133 83 0
-133 -634 0
-133 -631 0
671 -140 0
671 -135 0
135 669 668 670 -136 0
-135 136 0
-135 -670 0
-135 -668 0
-135 -669 0
653 667 666 136 -137 0
-136 137 0
-136 -667 0
-136 -653 0
-136 -666 0
137 632 634 646 -41 0
-137 41 0
-137 -646 0
-137 -632 0
-137 -634 0
628 640 656 -139 0
139 -641 -629 0
-139 629 0
-139 641 0
669 670 140 668 -141 0
-140 141 0
-140 -670 0
-140 -668 0
-140 -669 0
667 24 141 666 -142 0
-141 142 0
-141 -24 0
-141 -666 0
-141 -667 0
645 647 142 653 -143 0
-142 143 0
-142 -653 0
-142 -645 0
-142 -647 0
143 629 633 -53 0
-143 53 0
-143 -633 0
-143 -629 0
656 -152 0
656 -146 0
146 -641 -628 -629 -640 0
-146 641 0
-146 628 0
-146 640 0
-146 629 0
669 671 670 -148 0
667 668 148 666 -149 0
-148 149 0
-148 -668 0
-148 -666 0
-148 -667 0
647 653 149 24 -150 0
-149 150 0
-149 -24 0
-149 -647 0
-149 -653 0
634 645 150 646 -151 0
-150 151 0
-150 -646 0
-150 -634 0
-150 -645 0
151 629 633 -34 0
-151 34 0
-151 -633 0
-151 -629 0
152 629 -628 -640 641 0
-152 640 0
-152 -641 0
-152 628 0
-152 -629 0
671 -154 0
671 -158 0
669 670 668 154 -155 0
-154 155 0
-154 -670 0
-154 -668 0
-154 -669 0
667 24 666 155 -156 0
-155 156 0
-155 -24 0
-155 -666 0
-155 -667 0
645 647 156 653 -157 0
-156 157 0
-156 -653 0
-156 -645 0
-156 -647 0
157 631 633 -53 0
-157 53 0
-157 -633 0
-157 -631 0
669 670 158 668 -159 0
-158 159 0
-158 -670 0
-158 -668 0
-158 -669 0
653 667 159 666 -160 0
-159 160 0
-159 -667 0
-159 -653 0
-159 -666 0
160 629 633 645 -68 0
-160 68 0
-160 -645 0
-160 -629 0
-160 -633 0
640 641 656 -162 0
162 628 629 0
-162 -628 0
-162 -629 0
671 -171 0
671 -168 0
671 -164 0
669 670 164 668 -165 0
-164 165 0
-164 -670 0
-164 -668 0
-164 -669 0
667 24 165 666 -166 0
-165 166 0
-165 -24 0
-165 -666 0
-165 -667 0
646 647 166 653 -167 0
-166 167 0
-166 -653 0
-166 -646 0
-166 -647 0
167 629 634 -83 0
-167 83 0
-167 -634 0
-167 -629 0
669 670 168 668 -169 0
-168 169 0
-168 -670 0
-168 -668 0
-168 -669 0
653 667 169 666 -170 0
-169 170 0
-169 -667 0
-169 -653 0
-169 -666 0
170 629 -19 0
-170 -629 0
-170 19 0
667 669 666 171 -172 0
-171 172 0
-171 -669 0
-171 -666 0
-171 -667 0
646 653 172 24 -173 0
-172 173 0
-172 -24 0
-172 -646 0
-172 -653 0
173 645 626 -647 -174 0
-173 -626 0
-173 174 0
-173 647 0
-173 -645 0
174 -652 -25 -175 0
-174 652 0
-174 25 0
-174 175 0
175 -176 -630 -631 -177 0
-175 177 0
-175 630 0
-175 176 0
-175 631 0
176 -634 -632 -633 0
-176 632 0
-176 633 0
-176 634 0
177 -629 -628 0
-177 628 0
-177 629 0
670 671 -179 0
667 669 179 668 -180 0
-179 180 0
-179 -669 0
-179 -667 0
-179 -668 0
653 24 180 666 -181 0
-180 181 0
-180 -24 0
-180 -653 0
-180 -666 0
181 629 647 -31 0
-181 31 0
-181 -647 0
-181 -629 0
671 -186 670 0
670 671 -183 0
667 669 183 668 -184 0
-183 184 0
-183 -669 0
-183 -667 0
-183 -668 0
646 653 184 666 -185 0
-184 185 0
-184 -666 0
-184 -646 0
-184 -653 0
185 629 634 -41 0
-185 41 0
-185 -634 0
-185 -629 0
186 667 668 669 -187 0
-186 187 0
-186 -669 0
-186 -667 0
-186 -668 0
647 653 187 666 -188 0
-187 188 0
-187 -666 0
-187 -647 0
-187 -653 0
188 645 626 646 -189 0
-188 189 0
-188 -646 0
-188 -626 0
-188 -645 0
189 -652 -23 -175 0
-189 652 0
-189 23 0
-189 175 0
669 671 670 -193 0
667 668 193 666 -194 0
-193 194 0
-193 -668 0
-193 -666 0
-193 -667 0
645 646 194 653 -195 0
-194 195 0
-194 -653 0
-194 -645 0
-194 -646 0
195 629 633 634 -22 0
-195 22 0
-195 -634 0
-195 -629 0
-195 -633 0
667 671 669 -197 0
653 24 197 175 -198 0
-197 198 0
-197 -175 0
-197 -653 0
-197 -24 0
198 645 626 647 -199 0
-198 199 0
-198 -647 0
-198 -626 0
-198 -645 0
199 -200 -628 -629 -630 0
-199 200 0
-199 628 0
-199 630 0
-199 629 0
200 -33 -631 -632 -633 0
-200 33 0
-200 631 0
-200 633 0
-200 632 0
670 671 -202 0
667 669 668 202 -203 0
-202 203 0
-202 -669 0
-202 -667 0
-202 -668 0
653 24 666 203 -204 0
-203 204 0
-203 -24 0
-203 -653 0
-203 -666 0
645 646 204 647 -205 0
-204 205 0
-204 -647 0
-204 -645 0
-204 -646 0
205 631 633 634 -34 0
-205 34 0
-205 -634 0
-205 -631 0
-205 -633 0
-642 -657 0
630 -657 0
671 -214 0
-630 -658 0
642 -658 0
667 671 669 -210 0
653 24 210 175 -211 0
-210 211 0
-210 -175 0
-210 -653 0
-210 -24 0
211 647 626 -628 -212 0
-211 628 0
-211 -647 0
-211 -626 0
-211 212 0
212 -213 -629 -630 -631 0
-212 213 0
-212 629 0
-212 631 0
-212 630 0
213 -32 -632 0
-213 632 0
-213 32 0
653 667 214 669 -215 0
-214 215 0
-214 -669 0
-214 -653 0
-214 -667 0
215 633 626 -629 -216 0
-215 629 0
-215 -633 0
-215 -626 0
-215 216 0
216 -20 -630 -631 -632 0
-216 20 0
-216 630 0
-216 632 0
-216 631 0
-643 -659 0
631 -659 0
660 -226 0
-631 -660 0
643 -660 0
667 671 669 -222 0
634 646 222 653 -223 0
-222 223 0
-222 -653 0
-222 -634 0
-222 -646 0
223 633 626 -629 -224 0
-223 629 0
-223 -633 0
-223 -626 0
-223 224 0
224 -225 -630 -631 -632 0
-224 225 0
-224 630 0
-224 632 0
-224 631 0
225 -22 -645 0
-225 645 0
-225 22 0
657 659 658 226 -227 0
-226 227 0
-226 -659 0
-226 -657 0
-226 -658 0
646 647 227 652 -228 0
-227 228 0
-227 -652 0
-227 -646 0
-227 -647 0
635 644 228 645 -229 0
-228 229 0
-228 -645 0
-228 -635 0
-228 -644 0
229 632 633 634 -230 0
-229 230 0
-229 -634 0
-229 -632 0
-229 -633 0
230 -653 -654 -655 -656 0
-230 656 0
-230 653 0
-230 655 0
-230 654 0
670 671 -236 0
670 671 -232 0
667 669 232 668 -233 0
-232 233 0
-232 -669 0
-232 -667 0
-232 -668 0
653 24 666 233 -234 0
-233 234 0
-233 -24 0
-233 -653 0
-233 -666 0
633 645 234 647 -235 0
-234 235 0
-234 -647 0
-234 -633 0
-234 -645 0
235 630 -53 0
-235 -630 0
-235 53 0
667 669 236 668 -237 0
-236 237 0
-236 -669 0
-236 -667 0
-236 -668 0
646 653 237 666 -238 0
-237 238 0
-237 -666 0
-237 -646 0
-237 -653 0
633 634 238 645 -239 0
-238 239 0
-238 -645 0
-238 -633 0
-238 -634 0
239 630 -22 0
-239 -630 0
-239 22 0
671 -241 0
671 -244 0
669 670 241 668 -242 0
-241 242 0
-241 -670 0
-241 -668 0
-241 -669 0
653 667 666 242 -243 0
-242 243 0
-242 -667 0
-242 -653 0
-242 -666 0
243 630 633 645 -68 0
-243 68 0
-243 -645 0
-243 -630 0
-243 -633 0
669 670 244 668 -245 0
-244 245 0
-244 -670 0
-244 -668 0
-244 -669 0
653 667 666 245 -246 0
-245 246 0
-245 -667 0
-245 -653 0
-245 -666 0
246 630 -19 0
-246 -630 0
-246 19 0
659 -248 658 660 0
646 652 248 657 -249 0
-248 249 0
-248 -657 0
-248 -646 0
-248 -652 0
634 644 249 645 -250 0
-249 250 0
-249 -645 0
-249 -634 0
-249 -644 0
250 632 633 -635 -251 0
-250 -632 0
-250 251 0
-250 635 0
-250 -633 0
251 -230 -647 0
-251 647 0
-251 230 0
669 671 670 -253 0
667 668 666 253 -254 0
-253 254 0
-253 -668 0
-253 -666 0
-253 -667 0
647 653 254 24 -255 0
-254 255 0
-254 -24 0
-254 -647 0
-254 -653 0
255 630 634 646 -83 0
-255 83 0
-255 -646 0
-255 -630 0
-255 -634 0
659 -262 660 0
659 -257 660 0
652 657 257 658 -258 0
-257 258 0
-257 -658 0
-257 -652 0
-257 -657 0
644 645 258 647 -259 0
-258 259 0
-258 -647 0
-258 -644 0
-258 -645 0
259 632 633 635 -260 0
-259 260 0
-259 -635 0
-259 -632 0
-259 -633 0
260 -261 -634 0
-260 634 0
-260 261 0
261 -230 -646 0
-261 646 0
-261 230 0
653 657 262 658 -263 0
-262 263 0
-262 -658 0
-262 -653 0
-262 -657 0
644 645 263 647 -264 0
-263 264 0
-263 -647 0
-263 -644 0
-263 -645 0
264 632 633 635 -265 0
-264 265 0
-264 -635 0
-264 -632 0
-264 -633 0
265 -266 -634 0
-265 634 0
-265 266 0
266 -267 -646 0
-266 646 0
-266 267 0
267 -652 -654 -655 -656 0
-267 656 0
-267 652 0
-267 655 0
-267 654 0
659 -270 660 0
652 657 270 658 -271 0
-270 271 0
-270 -658 0
-270 -652 0
-270 -657 0
633 644 271 645 -272 0
-271 272 0
-271 -645 0
-271 -633 0
-271 -644 0
272 632 -634 -635 -273 0
-272 -632 0
-272 273 0
-272 635 0
-272 634 0
273 -251 -646 0
-273 646 0
-273 251 0
659 -279 660 0
659 -275 660 0
652 657 275 658 -276 0
-275 276 0
-275 -658 0
-275 -652 0
-275 -657 0
276 634 -632 646 -277 0
-276 277 0
-276 -646 0
-276 632 0
-276 -634 0
277 -278 -633 -635 -644 0
-277 278 0
-277 633 0
-277 644 0
-277 635 0
278 -251 -645 0
-278 645 0
-278 251 0
652 657 279 658 -280 0
-279 280 0
-279 -658 0
-279 -652 0
-279 -657 0
644 646 280 647 -281 0
-280 281 0
-280 -647 0
-280 -644 0
-280 -646 0
281 632 634 635 -282 0
-281 282 0
-281 -635 0
-281 -632 0
-281 -634 0
282 -230 -633 -645 0
-282 633 0
-282 645 0
-282 230 0
659 -284 660 0
652 657 284 658 -285 0
-284 285 0
-284 -658 0
-284 -652 0
-284 -657 0
634 644 285 646 -286 0
-285 286 0
-285 -646 0
-285 -634 0
-285 -644 0
286 632 -633 -635 -278 0
-286 -632 0
-286 278 0
-286 635 0
-286 633 0
659 -292 660 0
659 -288 660 0
652 657 288 658 -289 0
-288 289 0
-288 -658 0
-288 -652 0
-288 -657 0
635 645 289 647 -290 0
-289 290 0
-289 -647 0
-289 -635 0
-289 -645 0
290 633 -632 -634 -291 0
-290 291 0
-290 632 0
-290 634 0
-290 -633 0
291 -261 -644 0
-291 644 0
-291 261 0
652 657 292 658 -293 0
-292 293 0
-292 -658 0
-292 -652 0
-292 -657 0
293 633 -632 645 -294 0
-293 294 0
-293 -645 0
-293 632 0
-293 -633 0
294 -273 -634 -635 -644 0
-294 273 0
-294 634 0
-294 644 0
-294 635 0
659 -296 660 0
652 657 296 658 -297 0
-296 297 0
-296 -658 0
-296 -652 0
-296 -657 0
635 644 297 647 -298 0
-297 298 0
-297 -647 0
-297 -635 0
-297 -644 0
298 632 -633 -634 -299 0
-298 -632 0
-298 299 0
-298 634 0
-298 633 0
299 -261 -645 0
-299 645 0
-299 261 0
659 -305 660 0
659 -301 660 0
652 657 301 658 -302 0
-301 302 0
-301 -658 0
-301 -652 0
-301 -657 0
635 646 302 647 -303 0
-302 303 0
-302 -647 0
-302 -635 0
-302 -646 0
303 634 -632 -633 -304 0
-303 304 0
-303 632 0
-303 633 0
-303 -634 0
304 -230 -644 -645 0
-304 644 0
-304 645 0
-304 230 0
652 657 305 658 -306 0
-305 306 0
-305 -658 0
-305 -652 0
-305 -657 0
306 635 -632 647 -307 0
-306 307 0
-306 -647 0
-306 632 0
-306 -635 0
307 -299 -633 -634 -644 0
-307 299 0
-307 633 0
-307 644 0
-307 634 0
660 -309 0
660 -313 0
659 -310 658 309 657 0
-309 310 0
-309 -659 0
-309 -657 0
-309 -658 0
310 -311 -632 -633 652 0
-310 311 0
-310 632 0
-310 633 0
-310 -652 0
311 -312 -634 -635 -644 0
-311 312 0
-311 634 0
-311 644 0
-311 635 0
312 -273 -645 0
-312 645 0
-312 273 0
657 659 658 313 -314 0
-313 314 0
-313 -659 0
-313 -657 0
-313 -658 0
314 632 644 652 -315 0
-314 315 0
-314 -652 0
-314 -632 0
-314 -644 0
315 -312 -633 -634 -635 0
-315 312 0
-315 633 0
-315 635 0
-315 634 0
669 671 670 -317 0
667 668 666 317 -318 0
-317 318 0
-317 -668 0
-317 -666 0
-317 -667 0
647 653 318 24 -319 0
-318 319 0
-318 -24 0
-318 -647 0
-318 -653 0
634 645 319 646 -320 0
-319 320 0
-319 -646 0
-319 -634 0
-319 -645 0
320 630 633 -34 0
-320 34 0
-320 -633 0
-320 -630 0
660 -323 0
657 659 658 323 -324 0
-323 324 0
-323 -659 0
-323 -657 0
-323 -658 0
646 647 324 652 -325 0
-324 325 0
-324 -652 0
-324 -646 0
-324 -647 0
634 635 325 645 -326 0
-325 326 0
-325 -645 0
-325 -634 0
-325 -635 0
326 633 -632 -644 -230 0
-326 230 0
-326 632 0
-326 644 0
-326 -633 0
671 -332 0
669 671 -328 0
653 667 328 175 -329 0
-328 329 0
-328 -175 0
-328 -653 0
-328 -667 0
329 645 626 -629 -330 0
-329 629 0
-329 -645 0
-329 -626 0
-329 330 0
330 -331 -630 -631 -632 0
-330 331 0
-330 630 0
-330 632 0
-330 631 0
331 -21 -633 0
-331 633 0
-331 21 0
669 670 332 668 -333 0
-332 333 0
-332 -670 0
-332 -668 0
-332 -669 0
667 24 666 333 -334 0
-333 334 0
-333 -24 0
-333 -666 0
-333 -667 0
334 630 647 653 -31 0
-334 31 0
-334 -653 0
-334 -630 0
-334 -647 0
660 -344 0
660 -340 0
660 -336 0
657 659 658 336 -337 0
-336 337 0
-336 -659 0
-336 -657 0
-336 -658 0
645 646 337 652 -338 0
-337 338 0
-337 -652 0
-337 -645 0
-337 -646 0
338 633 -632 634 -339 0
-338 339 0
-338 -634 0
-338 632 0
-338 -633 0
339 -251 -635 -644 0
-339 635 0
-339 644 0
-339 251 0
657 659 658 340 -341 0
-340 341 0
-340 -659 0
-340 -657 0
-340 -658 0
646 647 341 653 -342 0
-341 342 0
-341 -653 0
-341 -646 0
-341 -647 0
635 644 342 645 -343 0
-342 343 0
-342 -645 0
-342 -635 0
-342 -644 0
343 632 633 634 -267 0
-343 267 0
-343 -634 0
-343 -632 0
-343 -633 0
657 659 658 344 -345 0
-344 345 0
-344 -659 0
-344 -657 0
-344 -658 0
646 647 345 653 -346 0
-345 346 0
-345 -653 0
-345 -646 0
-345 -647 0
634 635 346 644 -347 0
-346 347 0
-346 -644 0
-346 -634 0
-346 -635 0
347 632 -633 -645 -267 0
-347 -632 0
-347 267 0
-347 645 0
-347 633 0
667 671 669 -349 0
647 653 349 24 -350 0
-349 350 0
-349 -24 0
-349 -647 0
-349 -653 0
350 633 634 646 -351 0
-350 351 0
-350 -646 0
-350 -633 0
-350 -634 0
351 -352 626 -628 -629 0
-351 -626 0
-351 352 0
-351 629 0
-351 628 0
352 -353 -630 -631 -632 0
-352 353 0
-352 630 0
-352 632 0
-352 631 0
353 -34 -645 0
-353 645 0
-353 34 0
659 -360 660 0
659 -355 660 0
653 657 355 658 -356 0
-355 356 0
-355 -658 0
-355 -653 0
-355 -657 0
634 644 356 646 -357 0
-356 357 0
-356 -646 0
-356 -634 0
-356 -644 0
357 632 -633 -635 -358 0
-357 -632 0
-357 358 0
-357 635 0
-357 633 0
358 -359 -645 0
-358 645 0
-358 359 0
359 -267 -647 0
-359 647 0
-359 267 0
653 657 360 658 -361 0
-360 361 0
-360 -658 0
-360 -653 0
-360 -657 0
361 632 -633 644 -362 0
-361 633 0
-361 -644 0
-361 -632 0
-361 362 0
362 -363 -634 -635 0
-362 634 0
-362 635 0
-362 363 0
363 -364 -645 0
-363 645 0
-363 364 0
364 -359 -646 0
-364 646 0
-364 359 0
660 -374 0
660 -370 0
660 -366 0
657 659 658 366 -367 0
-366 367 0
-366 -659 0
-366 -657 0
-366 -658 0
645 646 367 653 -368 0
-367 368 0
-367 -653 0
-367 -645 0
-367 -646 0
633 634 368 644 -369 0
-368 369 0
-368 -644 0
-368 -633 0
-368 -634 0
369 632 -635 -359 0
-369 359 0
-369 635 0
-369 -632 0
657 659 658 370 -371 0
-370 371 0
-370 -659 0
-370 -657 0
-370 -658 0
646 647 371 653 -372 0
-371 372 0
-371 -653 0
-371 -646 0
-371 -647 0
634 635 372 645 -373 0
-372 373 0
-372 -645 0
-372 -634 0
-372 -635 0
373 633 -632 -644 -267 0
-373 267 0
-373 632 0
-373 644 0
-373 -633 0
657 659 658 374 -375 0
-374 375 0
-374 -659 0
-374 -657 0
-374 -658 0
645 647 375 653 -376 0
-375 376 0
-375 -653 0
-375 -645 0
-375 -647 0
376 633 -632 635 -377 0
-376 377 0
-376 -635 0
-376 632 0
-376 -633 0
377 -266 -634 -644 0
-377 634 0
-377 644 0
-377 266 0
659 -385 660 0
659 -382 660 0
653 657 382 658 -383 0
-382 383 0
-382 -658 0
-382 -653 0
-382 -657 0
633 644 383 645 -384 0
-383 384 0
-383 -645 0
-383 -633 0
-383 -644 0
384 632 -634 -635 -364 0
-384 -632 0
-384 364 0
-384 635 0
-384 634 0
653 657 385 658 -386 0
-385 386 0
-385 -658 0
-385 -653 0
-385 -657 0
386 633 -632 645 -387 0
-386 387 0
-386 -645 0
-386 632 0
-386 -633 0
387 -364 -634 -635 -644 0
-387 364 0
-387 634 0
-387 644 0
-387 635 0
659 -389 660 0
653 657 389 658 -390 0
-389 390 0
-389 -658 0
-389 -653 0
-389 -657 0
390 634 -632 646 -391 0
-390 391 0
-390 -646 0
-390 632 0
-390 -634 0
391 -358 -633 -635 -644 0
-391 358 0
-391 633 0
-391 644 0
-391 635 0
659 -397 660 0
659 -393 660 0
653 657 393 658 -394 0
-393 394 0
-393 -658 0
-393 -653 0
-393 -657 0
635 644 394 647 -395 0
-394 395 0
-394 -647 0
-394 -635 0
-394 -644 0
395 632 -633 -634 -396 0
-395 -632 0
-395 396 0
-395 634 0
-395 633 0
396 -266 -645 0
-396 645 0
-396 266 0
653 657 397 658 -398 0
-397 398 0
-397 -658 0
-397 -653 0
-397 -657 0
398 635 -632 647 -399 0
-398 399 0
-398 -647 0
-398 632 0
-398 -635 0
399 -396 -633 -634 -644 0
-399 396 0
-399 633 0
-399 644 0
-399 634 0
660 -409 0
660 -405 0
660 -401 0
657 659 658 401 -402 0
-401 402 0
-401 -659 0
-401 -657 0
-401 -658 0
646 647 402 653 -403 0
-402 403 0
-402 -653 0
-402 -646 0
-402 -647 0
403 634 -632 635 -404 0
-403 404 0
-403 -635 0
-403 632 0
-403 -634 0
404 -267 -633 -644 -645 0
-404 267 0
-404 633 0
-404 645 0
-404 644 0
657 659 658 405 -406 0
-405 406 0
-405 -659 0
-405 -657 0
-405 -658 0
645 646 406 653 -407 0
-406 407 0
-406 -653 0
-406 -645 0
-406 -646 0
407 633 -632 634 -408 0
-407 408 0
-407 -634 0
-407 632 0
-407 -633 0
408 -359 -635 -644 0
-408 635 0
-408 644 0
-408 359 0
659 -410 658 409 657 0
-409 410 0
-409 -659 0
-409 -657 0
-409 -658 0
410 653 -632 -633 -411 0
-410 411 0
-410 632 0
-410 633 0
-410 -653 0
411 -363 -634 -635 -644 0
-411 363 0
-411 634 0
-411 644 0
-411 635 0
629 -413 0
413 -667 -628 -630 0
-413 628 0
-413 630 0
-413 667 0
626 -415 0
-626 630 -666 0
-631 -668 415 -629 -630 0
-415 668 0
-415 629 0
-415 631 0
-415 630 0
630 -417 0
417 -669 -628 -631 0
-417 628 0
-417 631 0
-417 669 0
631 -419 626 0
419 -669 -628 -629 -630 0
-419 669 0
-419 628 0
-419 630 0
-419 629 0
632 -421 626 -628 0
421 -671 -629 -630 -631 0
-421 671 0
-421 629 0
-421 631 0
-421 630 0
-626 663 -423 0
423 -26 -628 0
-423 628 0
-423 26 0
651 664 -426 0
663 175 -423 0
426 650 626 -636 -427 0
-426 636 0
-426 -650 0
-426 -626 0
-426 427 0
427 -639 -637 -638 -428 0
-427 428 0
-427 637 0
-427 639 0
-427 638 0
428 -24 -175 0
-428 24 0
-428 175 0
664 175 -430 0
430 651 639 -431 0
-430 431 0
-430 -651 0
-430 -639 0
431 -650 -628 -638 0
-431 628 0
-431 638 0
-431 650 0
664 -434 0
636 664 -433 0
433 -90 -628 0
-433 628 0
-433 90 0
434 636 638 650 -435 0
-434 435 0
-434 -650 0
-434 -636 0
-434 -638 0
435 -639 -628 -651 0
-435 628 0
-435 639 0
-435 651 0
664 -439 0
664 -437 0
437 636 639 651 -431 0
-437 431 0
-437 -651 0
-437 -636 0
-437 -639 0
663 24 -423 0
439 24 -440 0
-439 -24 0
-439 440 0
440 638 650 -435 0
-440 435 0
-440 -650 0
-440 -638 0
664 -446 0
664 24 -430 0
637 649 663 -445 0
445 -626 -628 -36 0
-445 626 0
-445 628 0
-445 36 0
446 628 650 651 0
-446 -628 0
-446 -651 0
-446 -650 0
651 664 -449 0
651 664 -448 0
448 637 639 -431 0
-448 431 0
-448 -639 0
-448 -637 0
449 637 638 639 650 0
-449 -650 0
-449 -639 0
-449 -637 0
-449 -638 0
663 24 -451 0
451 637 -628 649 -36 0
-451 36 0
-451 -649 0
-451 628 0
-451 -637 0
663 -48 175 0
664 -454 639 650 0
454 627 626 -636 -455 0
-454 -626 0
-454 455 0
-454 636 0
-454 -627 0
455 -651 -637 -638 -428 0
-455 428 0
-455 637 0
-455 651 0
-455 638 0
663 24 -48 0
637 664 -433 0
663 24 -459 0
459 636 -628 648 -16 0
-459 16 0
-459 -648 0
-459 628 0
-459 -636 0
664 -462 0
664 -463 0
462 24 -433 0
-462 -24 0
-462 433 0
463 -626 639 651 -431 0
-463 431 0
-463 -651 0
-463 626 0
-463 -639 0
630 631 -668 0
649 663 -466 0
466 -626 636 637 648 0
-466 -648 0
-466 -637 0
-466 626 0
-466 -636 0
663 -469 0
631 -468 0
468 -671 -628 -632 0
-468 628 0
-468 632 0
-468 671 0
469 -626 636 648 -470 0
-469 470 0
-469 -648 0
-469 626 0
-469 -636 0
470 -16 -628 0
-470 628 0
-470 16 0
663 175 -451 0
650 664 -474 0
650 664 -473 0
473 -626 638 -435 0
-473 626 0
-473 -638 0
-473 435 0
474 637 638 -435 0
-474 435 0
-474 -638 0
-474 -637 0
664 -476 0
664 -479 0
476 638 626 -636 -477 0
-476 636 0
-476 -638 0
-476 -626 0
-476 477 0
477 -639 -637 -650 -478 0
-477 478 0
-477 637 0
-477 650 0
-477 639 0
478 -651 -428 0
-478 651 0
-478 428 0
479 24 -109 0
-479 -24 0
-479 109 0
637 649 663 -481 0
481 636 626 -648 -428 0
-481 -626 0
-481 428 0
-481 648 0
-481 -636 0
663 -487 0
636 663 -485 0
485 -648 626 -637 -486 0
-485 -626 0
-485 486 0
-485 648 0
-485 637 0
486 -649 -428 0
-486 649 0
-486 428 0
487 649 626 648 -488 0
-487 488 0
-487 -649 0
-487 -626 0
-487 -648 0
488 -637 -636 -428 0
-488 636 0
-488 637 0
-488 428 0
651 664 -490 0
490 -627 626 650 -491 0
-490 627 0
-490 -650 0
-490 -626 0
-490 491 0
491 -638 -636 -637 -428 0
-491 428 0
-491 636 0
-491 638 0
-491 637 0
651 664 -493 0
493 -626 638 639 650 0
-493 -650 0
-493 -639 0
-493 626 0
-493 -638 0
637 648 663 -495 0
495 -649 626 -636 -428 0
-495 -626 0
-495 428 0
-495 649 0
-495 636 0
628 -670 0
663 175 -459 0
651 664 650 -499 0
499 636 638 639 0
-499 -636 0
-499 -639 0
-499 -638 0
631 632 -670 0
630 632 -670 0
-626 664 -433 0
-626 665 -146 0
629 630 -666 0
629 641 665 -506 0
506 -626 -640 0
-506 626 0
-506 640 0
629 665 -508 0
508 -641 626 -640 0
-508 641 0
-508 640 0
-508 -626 0
630 -511 626 0
628 641 665 -506 0
511 -667 -628 -629 0
-511 628 0
-511 629 0
-511 667 0
628 -668 0
640 -665 0
665 -514 0
514 641 626 -628 -515 0
-514 628 0
-514 -641 0
-514 -626 0
-514 515 0
515 -640 -629 0
-515 629 0
-515 640 0
630 -468 0
-642 -666 0
628 665 -508 0
628 -666 0
626 -524 0
-626 -413 0
642 -667 0
-630 -666 524 -629 0
-524 629 0
-524 630 0
-524 666 0
-643 -668 0
-626 -417 0
643 -669 0
629 -417 0
-630 -529 626 -629 0
-632 -670 529 -631 0
-529 631 0
-529 632 0
-529 670 0
-626 631 -668 0
629 631 -668 0
-626 -468 0
629 -468 0
629 632 -670 0
-644 -670 0
644 -671 0
-626 632 -670 0
664 -109 175 0
664 175 -440 0
651 664 -541 0
628 648 649 663 0
541 638 626 639 -542 0
-541 542 0
-541 -639 0
-541 -626 0
-541 -638 0
542 -650 -636 -637 -428 0
-542 428 0
-542 636 0
-542 650 0
-542 637 0
664 175 -433 0
-637 -545 -636 0
-639 -652 545 -638 -428 0
-545 428 0
-545 638 0
-545 652 0
-545 639 0
638 639 652 -547 0
635 636 547 637 -548 0
-547 548 0
-547 -637 0
-547 -635 0
-547 -636 0
632 633 548 634 -549 0
-548 549 0
-548 -634 0
-548 -632 0
-548 -633 0
549 628 629 630 631 0
-549 -631 0
-549 -630 0
-549 -628 0
-549 -629 0
-652 -551 0
652 551 0
551 673 552 0
551 -556 552 -557 0
-551 -552 0
-551 -673 557 0
-551 -673 556 0
636 637 552 -553 -554 0
-552 -636 0
-552 554 0
-552 553 0
-552 -637 0
553 638 639 0
-553 -638 0
-553 -639 0
630 631 554 -162 -555 0
-554 -630 0
-554 555 0
-554 162 0
-554 -631 0
555 632 633 634 635 0
-555 -635 0
-555 -634 0
-555 -632 0
-555 -633 0
556 -639 -636 -637 -638 0
-556 639 0
-556 636 0
-556 638 0
-556 637 0
557 -558 -177 -559 0
-557 177 0
-557 558 0
-557 559 0
558 -635 -632 -633 -634 0
-558 635 0
-558 632 0
-558 634 0
-558 633 0
559 -631 -630 0
-559 630 0
-559 631 0
560 -566 561 0
560 674 561 0
-560 -561 0
-560 -674 566 0
650 651 561 -562 -563 0
-561 -650 0
-561 563 0
-561 562 0
-561 -651 0
562 649 648 0
-562 -648 0
-562 -649 0
563 -564 -640 -565 0
563 641 -564 -565 0
-563 565 0
-563 564 0
-563 640 -641 0
564 644 645 646 647 0
-564 -647 0
-564 -646 0
-564 -644 0
-564 -645 0
565 642 643 0
-565 -642 0
-565 -643 0
566 650 567 -571 0
566 -650 567 -568 0
-566 -567 0
-566 -650 568 0
-566 650 571 0
567 640 -641 0
-567 -640 0
-567 641 0
568 -569 -641 -642 -570 0
-568 570 0
-568 641 0
-568 569 0
-568 642 0
569 -648 -647 -649 -651 0
-569 651 0
-569 647 0
-569 649 0
-569 648 0
570 -643 -644 -645 -646 0
-570 646 0
-570 643 0
-570 645 0
-570 644 0
651 -562 571 -564 -565 0
-571 -651 0
-571 565 0
-571 564 0
-571 562 0
572 675 573 0
-572 -675 0
-572 -573 0
573 637 -636 -648 649 0
573 636 -637 648 -649 0
573 636 637 648 649 0
573 -648 -636 -637 -649 0
-573 648 -636 0
-573 636 -648 0
-573 637 -649 0
-573 649 -637 0
-655 -575 0
655 575 0
575 676 576 0
-575 -676 0
-575 -576 0
576 -650 -638 639 651 0
576 638 -639 650 -651 0
576 638 639 650 651 0
576 -639 -638 -650 -651 0
-576 650 -638 0
-576 638 -650 0
-576 -651 639 0
-576 -639 651 0
-656 -578 0
656 578 0
578 677 579 0
-578 -677 0
-578 -579 0
579 629 -628 -640 641 0
579 628 -629 640 -641 0
579 628 629 640 641 0
579 -641 -628 -629 -640 0
-579 640 -628 0
-579 628 -640 0
-579 629 -641 0
-579 641 -629 0
580 642 -630 -678 0
-580 630 0
-580 -642 0
-580 678 0
658 -582 0
-658 582 0
582 630 -642 -679 0
-582 679 0
-582 642 0
-582 -630 0
583 -680 -631 643 0
-583 631 0
-583 -643 0
-583 680 0
584 631 -643 -681 0
-584 681 0
-584 643 0
-584 -631 0
-663 -586 0
663 586 0
586 682 587 0
-586 -682 0
-586 -587 0
587 -593 -636 -589 0
587 588 -589 -593 0
-587 593 0
-587 589 0
-587 636 -588 0
588 637 -649 0
588 649 -628 -637 0
-588 628 -637 0
-588 637 649 0
-588 -649 -637 0
589 36 -628 0
589 -562 590 0
589 590 -628 0
589 -562 36 0
-589 628 562 0
-589 -36 -590 0
590 -558 -591 0
-590 558 0
-590 591 0
591 -559 -592 0
-591 559 0
-591 592 0
592 -629 626 0
-592 -626 0
-592 629 0
593 594 -590 0
593 -595 594 0
593 636 590 -595 0
-593 590 595 0
-593 -594 -590 0
-593 -594 -636 0
594 -649 -637 648 0
594 637 -628 648 649 0
-594 637 -649 0
-594 649 -637 0
-594 -648 0
-594 628 637 0
595 588 -636 0
595 588 648 0
-595 -588 0
-595 636 -648 0
596 683 597 0
-596 -683 0
-596 -597 0
597 601 -602 0
597 638 598 -602 0
-597 602 0
-597 -601 -598 0
-597 -601 -638 0
598 -600 -599 -634 0
-598 634 0
-598 599 0
-598 600 0
599 -633 -632 -559 -592 0
-599 592 0
-599 632 0
-599 559 0
-599 633 0
600 -637 -635 -636 0
-600 635 0
-600 636 0
-600 637 0
601 -651 650 0
601 650 -628 639 0
-601 -650 0
-601 -639 651 0
-601 628 651 0
602 599 603 -606 0
602 -606 603 605 0
-602 606 0
-602 -603 0
-602 -605 -599 0
603 598 -604 0
638 -650 603 598 0
-603 -598 0
-603 -638 604 0
-603 650 604 0
604 -639 -628 651 0
-604 628 0
-604 639 0
-604 -651 0
605 -650 -634 -638 -600 0
-605 600 0
-605 634 0
-605 650 0
-605 638 0
606 608 639 0
606 608 -638 0
606 607 608 0
-606 -608 0
-606 638 -639 -607 0
607 651 -628 0
-607 628 0
-607 -651 0
608 -651 639 0
608 628 -650 0
608 628 -651 0
-608 -639 -628 0
-608 651 650 0
-608 651 -628 0
-665 -610 0
665 610 0
610 640 611 0
610 684 611 0
-610 -611 0
-610 -684 -640 0
611 -640 177 612 0
611 -612 -177 -640 0
-611 640 0
-611 612 -177 0
-611 177 -612 0
612 -626 -641 0
612 641 626 0
-612 -641 626 0
-612 -626 641 0
666 -614 0
-666 614 0
642 -685 -628 614 615 0
-614 685 0
-614 -615 0
-614 628 0
-614 -642 0
615 -630 -592 0
615 630 592 0
-615 630 -592 0
-615 -630 592 0
616 628 -642 -686 0
616 -686 -642 -615 0
-616 686 0
-616 642 0
-616 615 -628 0
668 -618 0
-668 618 0
643 -687 -628 618 619 0
-618 687 0
-618 -619 0
-618 628 0
-618 -643 0
619 -631 -620 0
619 631 620 0
-619 631 -620 0
-619 -631 620 0
620 -630 -592 0
-620 630 0
-620 592 0
621 628 -643 -688 0
621 -643 -688 -619 0
-621 688 0
-621 643 0
-621 619 -628 0
670 -623 0
-670 623 0
644 -689 -628 623 624 0
-623 689 0
-623 -624 0
-623 628 0
-623 -644 0
624 632 592 0
624 632 559 0
624 -632 -559 -592 0
-624 -632 559 0
-624 632 -559 -592 0
-624 -632 592 0
625 628 -644 -690 0
625 -690 -644 -624 0
-625 690 0
-625 644 0
-625 624 -628 0
